15
0  38  22  55  19  47  33  12  50  28  41  17  36  23  45
38  0  41  16  53  12  39  29  44  18  36  25  47  13  32
22  41  0  50  27  19  42  14  37  21  46  30  12  38  26
55  16  50  0  41  22  33  18  49  27  15  44  12  31  40
19  53  27  41  0  35  19  41  23  50  28  16  37  12  32
47  12  19  22  35  0  45  21  12  36  29  50  15  43  18
33  39  42  33  19  45  0  44  21  32  13  41  24  19  47
12  29  14  18  41  21  44  0  39  25  48  21  31  12  34
50  44  37  49  23  12  21  39  0  37  21  44  12  28  41
28  18  21  27  50  36  32  25  37  0  36  17  48  23  12
41  36  46  15  28  29  13  48  21  36  0  35  22  47  19
17  25  30  44  16  50  41  21  44  17  35  0  31  16  44
36  47  12  12  37  15  24  31  12  48  22  31  0  37  19
23  13  38  31  12  43  19  12  28  23  47  16  37  0  28
45  32  26  40  32  18  47  34  41  12  19  44  19  28  0